c   #vars: 128   #clauses: 579   #literals: 1584
c 
p cnf 128 579
-1 -2 0
-3 -4 0
-5 -6 0
-7 -8 0
-9 -10 0
-11 -12 0
-13 -14 0
-13 15 105 106 0
96 97 110 111 0
38 78 79 -108 0
-16 -17 0
-18 -19 0
-20 -21 0
-22 -23 0
-24 -25 0
-26 -27 0
-28 -29 0
-30 -31 0
-32 -33 0
-34 -35 0
-36 -37 0
16 17 108 109 0
5 6 39 -64 0
46 -66 86 87 0
-40 -41 0
-42 -43 0
-44 -45 0
30 31 61 -93 0
-47 -48 0
-49 -50 0
-51 -52 0
-53 -54 0
-55 -56 0
96 97 120 121 0
66 67 -82 98 0
-57 -58 0
-59 -60 0
84 112 113 -118 0
-62 -63 0
-64 -65 0
-66 -67 0
-68 -69 0
-70 -71 0
-72 -73 0
-74 -75 0
-76 -77 0
-78 -79 0
-80 -81 0
-82 -83 0
13 14 90 -124 0
55 56 -66 98 0
-86 -87 0
-88 -89 0
7 8 -59 95 0
-91 -92 0
-93 -94 0
9 10 107 -120 0
-96 -97 0
-99 -100 0
-101 -102 0
-103 -104 0
-105 -106 0
-109 120 121 124 0
-108 -109 0
-110 -111 0
-112 -113 0
-114 -115 0
-116 -117 0
-118 -119 0
9 10 120 121 0
-120 -121 0
3 4 57 58 0
-122 -123 0
-55 59 60 95 0
20 21 68 69 0
-125 -126 0
1 2 112 113 0
-127 -128 0
5 6 112 113 0
-1 -20 0
-2 -21 0
5 6 91 92 0
-1 -42 0
-2 -43 0
5 6 76 77 0
-1 -64 0
-2 -65 0
-2 -98 0
5 6 72 73 0
-1 -101 0
-2 -102 0
88 89 127 128 0
-1 -112 0
-2 -113 0
20 21 107 -120 0
-3 -40 0
-4 -41 0
-9 20 21 107 0
-3 -51 0
-4 -52 0
85 88 89 -101 0
-3 -57 0
-4 -58 0
20 21 127 128 0
-3 -72 0
-4 -73 0
42 43 84 -118 0
-3 -91 0
-4 -92 0
36 37 59 60 0
-16 46 86 87 0
-6 -39 0
72 73 76 77 0
-5 -72 0
-6 -73 0
11 12 127 128 0
-5 -74 0
-6 -75 0
61 70 71 -93 0
-5 -76 0
-6 -77 0
-5 -91 0
-6 -92 0
7 8 127 128 0
-5 -112 0
-6 -113 0
18 19 116 117 0
-7 -9 0
-8 -10 0
18 19 110 111 0
-7 -26 0
-8 -27 0
7 8 9 10 0
9 10 -20 107 0
-8 -95 0
18 19 44 45 0
-7 -125 0
-8 -126 0
28 29 125 126 0
-7 -127 0
-8 -128 0
40 41 78 79 0
-9 -47 0
-10 -48 0
64 65 70 71 0
-9 -68 0
-10 -69 0
-90 120 121 124 0
-10 -107 0
26 27 40 41 0
-9 -114 0
-10 -115 0
9 10 68 69 0
-9 -120 0
-10 -121 0
49 50 101 102 0
-9 -122 0
-10 -123 0
26 27 91 92 0
-11 -42 0
-12 -43 0
7 8 26 27 0
-11 -68 0
-12 -69 0
26 27 82 83 0
-11 -70 0
-12 -71 0
38 48 -108 0
-11 -78 0
-12 -79 0
1 2 -82 98 0
-11 -93 0
-12 -94 0
-11 -127 0
-12 -128 0
66 67 90 -124 0
38 -47 78 79 0
-14 -15 0
-13 -20 0
-14 -21 0
-13 90 -121 124 0
-13 -64 0
-14 -65 0
36 37 62 63 0
7 8 -55 95 0
-14 -90 0
-13 15 20 21 0
-1 82 83 98 0
74 75 118 119 0
55 56 -82 98 0
76 77 80 81 0
38 -78 108 109 0
-15 -21 0
51 52 64 65 0
38 -47 109 0
-15 -106 0
70 71 96 97 0
-55 66 67 98 0
30 31 61 -70 0
-17 -46 0
34 35 114 115 0
-16 -62 0
-17 -63 0
86 87 114 115 0
-16 -108 0
-17 -109 0
42 43 84 -112 0
-16 -120 0
-17 -121 0
22 23 55 56 0
-18 -42 0
-19 -43 0
-66 90 -121 124 0
-18 -44 0
-19 -45 0
85 -99 101 102 0
-18 -72 0
-19 -73 0
51 52 105 106 0
-18 -110 0
-19 -111 0
-18 -116 0
-19 -117 0
-20 -22 0
-21 -23 0
22 23 30 31 0
-20 -26 0
-21 -27 0
11 12 70 71 0
-20 -68 0
-21 -69 0
9 10 122 123 0
108 109 -121 124 0
-21 -107 0
-66 90 -109 124 0
-20 -127 0
-21 -128 0
24 25 32 33 0
-22 -30 0
-23 -31 0
24 25 57 58 0
-22 -55 0
-23 -56 0
20 21 22 23 0
-22 -59 0
-23 -60 0
1 2 20 21 0
-24 -32 0
-25 -33 0
59 60 125 126 0
-24 -57 0
-25 -58 0
57 58 80 81 0
-24 -99 0
-25 -100 0
47 48 108 109 0
-24 -108 0
-25 -109 0
30 31 116 117 0
-26 -40 0
-27 -41 0
3 4 40 41 0
-26 -82 0
-27 -83 0
86 87 96 97 0
-26 -91 0
-27 -92 0
30 31 44 45 0
-26 -101 0
-27 -102 0
34 35 74 75 0
-28 -40 0
-29 -41 0
-28 -53 0
-29 -54 0
16 17 62 63 0
-28 -99 0
-29 -100 0
-28 -125 0
-29 -126 0
44 45 51 52 0
-30 -44 0
-31 -45 0
-42 84 112 113 0
-31 -61 0
34 35 103 104 0
-30 -82 0
-31 -83 0
11 12 42 43 0
-30 -114 0
-31 -115 0
46 66 67 -86 0
-30 -116 0
-31 -117 0
34 35 55 56 0
-32 -49 0
-33 -50 0
66 67 125 126 0
-32 -62 0
-33 -63 0
74 75 105 106 0
-32 -91 0
-33 -92 0
39 -53 64 65 0
-32 -125 0
-33 -126 0
32 33 49 50 0
-34 -47 0
-35 -48 0
1 2 101 102 0
-34 -55 0
-35 -56 0
49 50 57 58 0
-34 -74 0
-35 -75 0
13 14 20 21 0
-34 -103 0
-35 -104 0
16 17 120 121 0
-34 -114 0
-35 -115 0
34 35 47 48 0
-36 -51 0
-37 -52 0
66 67 93 94 0
-36 -59 0
-37 -60 0
18 19 42 43 0
-36 -62 0
-37 -63 0
-30 61 70 71 0
-36 -70 0
-37 -71 0
-5 39 64 65 0
85 99 100 -101 0
88 89 114 115 0
85 -88 99 100 0
68 69 86 87 0
5 6 39 -53 0
-38 -48 0
36 37 70 71 0
39 53 54 -64 0
-38 -79 0
11 12 93 94 0
-5 39 53 54 0
-38 -109 0
62 63 114 115 0
16 17 46 -86 0
-39 -54 0
3 4 51 52 0
16 17 46 -66 0
-39 -65 0
28 29 53 54 0
-40 -49 0
-41 -50 0
9 10 47 48 0
-40 -51 0
-41 -52 0
78 79 80 81 0
-40 -78 0
-41 -79 0
47 48 70 71 0
-40 -103 0
-41 -104 0
22 23 59 60 0
-42 -78 0
-43 -79 0
72 73 103 104 0
13 14 -66 90 0
-43 -84 0
32 33 91 92 0
-42 -88 0
-43 -89 0
47 48 122 123 0
-44 -51 0
-45 -52 0
15 20 21 -105 0
-44 -122 0
-45 -123 0
53 54 74 75 0
61 -70 93 94 0
-46 -67 0
1 2 42 43 0
-30 61 93 94 0
-46 -87 0
40 41 51 52 0
-47 -66 0
-48 -67 0
5 6 74 75 0
-47 -70 0
-48 -71 0
93 94 112 113 0
-47 -108 0
-48 -109 0
88 89 101 102 0
-47 -122 0
-48 -123 0
86 87 120 121 0
-49 -57 0
-50 -58 0
-49 -101 0
-50 -102 0
-1 66 67 98 0
-49 -125 0
-50 -126 0
1 2 64 65 0
-51 -62 0
-52 -63 0
-51 -64 0
-52 -65 0
47 48 66 67 0
-51 -105 0
-52 -106 0
18 19 72 73 0
-53 -74 0
-54 -75 0
3 4 72 73 0
-53 -103 0
-54 -104 0
53 54 105 106 0
-53 -105 0
-54 -106 0
80 81 103 104 0
-20 107 120 121 0
-56 -95 0
105 106 112 113 0
-56 -98 0
74 75 114 115 0
40 41 103 104 0
13 14 15 -105 0
9 10 114 115 0
-13 90 -109 124 0
13 14 15 -20 0
99 100 105 106 0
-57 -80 0
-58 -81 0
40 41 49 50 0
-9 107 120 121 0
-60 -95 0
11 12 78 79 0
-59 -116 0
-60 -117 0
44 45 122 123 0
-59 -118 0
-60 -119 0
32 33 62 63 0
-59 -125 0
-60 -126 0
42 43 88 89 0
84 -112 118 119 0
-61 -71 0
30 31 82 83 0
-42 84 118 119 0
-61 -94 0
13 14 64 65 0
-62 -68 0
-63 -69 0
-16 46 66 67 0
-62 -114 0
-63 -115 0
62 63 68 69 0
-64 -70 0
-65 -71 0
11 12 68 69 0
-64 -80 0
-65 -81 0
28 29 40 41 0
55 56 -59 95 0
-67 -90 0
28 29 99 100 0
-66 -93 0
-67 -94 0
24 25 108 109 0
-67 -98 0
-66 -125 0
-67 -126 0
1 2 -66 98 0
-68 -86 0
-69 -87 0
-70 -96 0
-71 -97 0
80 81 96 97 0
76 77 118 119 0
-72 -76 0
-73 -77 0
76 77 110 111 0
-72 -103 0
-73 -104 0
-74 -105 0
-75 -106 0
42 43 78 79 0
-74 -114 0
-75 -115 0
38 47 48 -78 0
-74 -118 0
-75 -119 0
-76 -80 0
-77 -81 0
7 8 125 126 0
-76 -110 0
-77 -111 0
51 52 62 63 0
-76 -118 0
-77 -119 0
64 65 80 81 0
-78 -80 0
-79 -81 0
-80 -96 0
-81 -97 0
26 27 101 102 0
-80 -103 0
-81 -104 0
59 60 118 119 0
15 -20 105 106 0
-83 -98 0
30 31 114 115 0
-84 -113 0
1 2 -55 98 0
-84 -119 0
-1 55 56 98 0
-85 -89 0
-66 82 83 98 0
-85 -100 0
103 104 110 111 0
-55 82 83 98 0
-85 -102 0
103 104 116 117 0
-86 -96 0
-87 -97 0
49 50 125 126 0
-86 -114 0
-87 -115 0
-86 -120 0
-87 -121 0
3 4 91 92 0
-88 -101 0
-89 -102 0
85 -88 101 102 0
-88 -114 0
-89 -115 0
32 33 125 126 0
-88 -127 0
-89 -128 0
59 60 116 117 0
-7 55 56 95 0
24 25 99 100 0
-93 -112 0
-94 -113 0
-13 66 67 90 0
-96 -110 0
-97 -111 0
85 88 89 -99 0
-96 -120 0
-97 -121 0
105 106 125 126 0
-99 -105 0
-100 -106 0
103 104 105 106 0
-103 -105 0
-104 -106 0
53 54 103 104 0
-103 -110 0
-104 -111 0
36 37 51 52 0
-103 -116 0
-104 -117 0
122 123 127 128 0
-105 -112 0
-106 -113 0
20 21 26 27 0
-105 -125 0
-106 -126 0
-90 108 109 124 0
-107 -121 0
-108 -124 0
-120 -124 0
-7 59 60 95 0
-122 -127 0
-123 -128 0
